  100  21044752 
 90 64 42 48 85 26 92 22  9 15 
  1 59 33 27 76 20 87 69 65 49 
 50 58 43 81 89 14 79 46 25  6 
 98 60 83 55 39 68 32 44  7  4 
 24 19 75 91 29 17 37 35 13  5 
  2 41 66 11 45  3 97 31 86 36 
  8 80 70 12 84 57 51 16 38 77 
 23 30 82 61 96 74 54 94 71 67 
 52 56 21 10 18 93 88 34 63 73 
100 72 47 40 62 53 28 99 95 78 
